11 8
30 17
12 8 2 5
10 8 3 3
15 19 2 3
1 5 1 3
2 11 1 2
20 16 2 3
3 12 3 1
17 16 2 4
6 5 1 3
12 19 3 4
18 5 3 2
0 20 2 5
7 9 1 2
18 13 2 2
18 7 3 3
9 9 1 1
15 16 2 5
19 17 1 1
15 12 2 3
1 20 2 1
12 17 1 4
16 11 3 1
19 11 1 2
19 15 2 5
10 9 2 1
19 5 3 2
16 18 3 4
1 3 1 1
11 1 2 4
14 8 3 3
